p edge 32 160
e 1 7
e 1 8
e 1 10
e 1 18
e 1 20
e 2 10
e 2 11
e 2 13
e 2 14
e 2 32
e 3 4
e 3 12
e 3 19
e 3 27
e 3 28
e 4 3
e 4 7
e 4 21
e 4 25
e 4 29
e 5 8
e 5 9
e 5 14
e 5 23
e 5 28
e 6 4
e 6 15
e 6 20
e 6 27
e 6 32
e 7 10
e 7 14
e 7 19
e 7 24
e 7 27
e 8 4
e 8 6
e 8 18
e 8 25
e 8 27
e 9 6
e 9 10
e 9 24
e 9 25
e 9 30
e 10 12
e 10 14
e 10 19
e 10 21
e 10 31
e 11 7
e 11 18
e 11 21
e 11 21
e 11 28
e 12 2
e 12 2
e 12 3
e 12 15
e 12 21
e 13 8
e 13 10
e 13 17
e 13 29
e 13 30
e 14 2
e 14 2
e 14 2
e 14 29
e 14 31
e 15 2
e 15 8
e 15 24
e 15 31
e 15 31
e 16 11
e 16 12
e 16 23
e 16 25
e 16 29
e 17 11
e 17 13
e 17 28
e 17 28
e 17 29
e 18 13
e 18 16
e 18 19
e 18 21
e 18 29
e 19 3
e 19 25
e 19 27
e 19 28
e 19 29
e 20 4
e 20 11
e 20 27
e 20 28
e 20 31
e 21 7
e 21 10
e 21 18
e 21 27
e 21 28
e 22 6
e 22 21
e 22 25
e 22 29
e 22 29
e 23 2
e 23 10
e 23 26
e 23 29
e 23 31
e 24 9
e 24 16
e 24 22
e 24 26
e 24 28
e 25 6
e 25 12
e 25 18
e 25 18
e 25 20
e 26 1
e 26 2
e 26 10
e 26 16
e 26 24
e 27 6
e 27 11
e 27 12
e 27 12
e 27 17
e 28 5
e 28 8
e 28 9
e 28 30
e 28 32
e 29 4
e 29 5
e 29 9
e 29 28
e 29 31
e 30 6
e 30 6
e 30 20
e 30 21
e 30 27
e 31 4
e 31 12
e 31 17
e 31 26
e 31 28
e 32 5
e 32 5
e 32 10
e 32 18
e 32 31
